SECTION Graph
Nodes 713
Edges 712

E 1 15 1
E 1 16 1
E 1 17 1
E 1 18 1
E 1 19 1
E 1 20 1
E 1 21 1
E 1 22 1
E 1 23 1
E 1 24 1
E 1 25 1
E 1 26 1
E 1 772 1
E 1 773 1
E 1 774 1
E 1 775 1
E 1 776 1
E 1 777 1
E 1 778 1
E 1 779 1
E 1 780 1
E 1 781 1
E 1 782 1
E 1 783 1
E 2 15 1
E 3 15 1
E 4 16 1
E 5 17 1
E 6 18 1
E 7 19 1
E 8 20 1
E 9 21 1
E 10 22 1
E 11 23 1
E 12 24 1
E 13 25 1
E 14 26 1
E 15 28 1
E 15 29 1
E 15 30 1
E 16 31 1
E 17 32 1
E 18 33 1
E 19 34 1
E 20 35 1
E 21 36 1
E 22 37 1
E 23 38 1
E 24 39 1
E 25 40 1
E 26 41 1
E 30 42 1
E 30 43 1
E 31 44 1
E 42 55 1
E 42 56 1
E 42 57 1
E 43 58 1
E 44 59 1
E 45 55 1
E 45 60 1
E 46 55 1
E 46 61 1
E 47 55 1
E 47 62 1
E 48 55 1
E 48 63 1
E 49 55 1
E 49 64 1
E 50 55 1
E 50 65 1
E 51 55 1
E 51 66 1
E 52 55 1
E 52 67 1
E 53 55 1
E 53 68 1
E 55 69 1
E 55 70 1
E 55 71 1
E 55 72 1
E 55 73 1
E 55 74 1
E 55 75 1
E 55 76 1
E 55 77 1
E 55 78 1
E 55 79 1
E 55 80 1
E 69 82 1
E 69 83 1
E 69 84 1
E 70 85 1
E 71 86 1
E 72 87 1
E 73 88 1
E 74 89 1
E 75 90 1
E 76 91 1
E 77 92 1
E 78 93 1
E 79 94 1
E 80 95 1
E 82 96 1
E 82 97 1
E 82 98 1
E 82 99 1
E 82 100 1
E 82 101 1
E 82 102 1
E 82 103 1
E 82 104 1
E 82 105 1
E 82 106 1
E 82 107 1
E 96 109 1
E 96 110 1
E 96 111 1
E 97 112 1
E 98 113 1
E 99 114 1
E 100 115 1
E 101 116 1
E 102 117 1
E 103 118 1
E 104 119 1
E 105 120 1
E 106 121 1
E 107 122 1
E 129 143 1
E 129 144 1
E 136 153 1
E 137 162 1
E 138 151 1
E 139 151 1
E 139 152 1
E 140 153 1
E 141 154 1
E 142 154 1
E 143 155 1
E 143 156 1
E 145 157 1
E 146 158 1
E 147 159 1
E 148 160 1
E 149 161 1
E 151 165 1
E 152 167 1
E 153 168 1
E 154 168 1
E 154 169 1
E 155 169 1
E 155 170 1
E 156 171 1
E 157 171 1
E 157 172 1
E 158 172 1
E 158 173 1
E 159 173 1
E 159 174 1
E 160 174 1
E 160 175 1
E 161 175 1
E 161 176 1
E 162 176 1
E 163 179 1
E 164 189 1
E 166 179 1
E 167 180 1
E 168 180 1
E 176 189 1
E 179 194 1
E 180 194 1
E 190 214 1
E 191 216 1
E 192 204 1
E 193 205 1
E 194 206 1
E 195 208 1
E 196 209 1
E 197 210 1
E 198 211 1
E 199 212 1
E 200 213 1
E 201 214 1
E 202 215 1
E 203 215 1
E 204 218 1
E 205 219 1
E 206 220 1
E 208 217 1
E 209 217 1
E 210 217 1
E 211 217 1
E 212 217 1
E 213 217 1
E 214 229 1
E 215 229 1
E 216 218 1
E 217 239 1
E 218 243 1
E 219 232 1
E 220 233 1
E 221 234 1
E 222 235 1
E 223 236 1
E 224 237 1
E 225 238 1
E 226 239 1
E 227 240 1
E 228 240 1
E 229 242 1
E 230 243 1
E 232 244 1
E 233 244 1
E 234 244 1
E 235 244 1
E 236 244 1
E 237 244 1
E 238 244 1
E 239 254 1
E 240 254 1
E 242 244 1
E 243 244 1
E 244 270 1
E 245 270 1
E 246 259 1
E 247 260 1
E 248 261 1
E 249 262 1
E 250 263 1
E 251 264 1
E 252 265 1
E 253 266 1
E 254 267 1
E 255 268 1
E 256 269 1
E 257 270 1
E 259 271 1
E 260 271 1
E 261 271 1
E 262 271 1
E 263 271 1
E 264 271 1
E 265 271 1
E 266 271 1
E 267 271 1
E 268 283 1
E 269 284 1
E 270 284 1
E 271 292 1
E 272 297 1
E 273 286 1
E 274 287 1
E 275 288 1
E 276 289 1
E 277 290 1
E 278 291 1
E 279 292 1
E 280 293 1
E 281 293 1
E 282 295 1
E 283 296 1
E 284 297 1
E 286 298 1
E 287 298 1
E 288 298 1
E 289 298 1
E 290 298 1
E 291 298 1
E 292 307 1
E 293 307 1
E 295 298 1
E 296 298 1
E 297 298 1
E 298 322 1
E 299 324 1
E 300 313 1
E 301 314 1
E 302 315 1
E 303 316 1
E 304 317 1
E 305 318 1
E 306 319 1
E 307 320 1
E 308 321 1
E 309 322 1
E 310 323 1
E 311 323 1
E 313 325 1
E 314 325 1
E 315 325 1
E 316 325 1
E 317 325 1
E 318 325 1
E 319 325 1
E 320 325 1
E 321 325 1
E 322 337 1
E 323 337 1
E 324 325 1
E 325 346 1
E 326 351 1
E 327 340 1
E 328 341 1
E 329 342 1
E 330 343 1
E 331 344 1
E 332 345 1
E 333 346 1
E 334 347 1
E 335 347 1
E 336 349 1
E 337 350 1
E 338 351 1
E 340 352 1
E 341 352 1
E 342 352 1
E 343 352 1
E 344 352 1
E 345 352 1
E 346 361 1
E 347 361 1
E 349 352 1
E 350 352 1
E 351 352 1
E 352 376 1
E 353 378 1
E 354 367 1
E 355 368 1
E 356 369 1
E 357 370 1
E 358 371 1
E 359 372 1
E 360 373 1
E 361 374 1
E 362 375 1
E 363 376 1
E 364 377 1
E 365 377 1
E 367 379 1
E 368 379 1
E 369 379 1
E 370 379 1
E 371 379 1
E 372 379 1
E 373 379 1
E 374 379 1
E 375 379 1
E 376 391 1
E 377 391 1
E 378 379 1
E 379 401 1
E 380 405 1
E 381 394 1
E 382 395 1
E 383 396 1
E 384 397 1
E 385 398 1
E 386 399 1
E 387 400 1
E 388 401 1
E 389 402 1
E 390 402 1
E 391 404 1
E 392 405 1
E 394 406 1
E 395 406 1
E 396 406 1
E 397 406 1
E 398 406 1
E 399 406 1
E 400 406 1
E 401 416 1
E 402 416 1
E 404 406 1
E 405 406 1
E 406 426 1
E 407 432 1
E 408 421 1
E 409 422 1
E 410 423 1
E 411 424 1
E 412 425 1
E 413 426 1
E 414 427 1
E 415 427 1
E 416 429 1
E 417 430 1
E 418 431 1
E 419 432 1
E 421 433 1
E 422 433 1
E 423 433 1
E 424 433 1
E 425 433 1
E 426 441 1
E 427 441 1
E 429 433 1
E 430 433 1
E 431 433 1
E 432 433 1
E 433 459 1
E 434 459 1
E 435 448 1
E 436 449 1
E 437 450 1
E 438 451 1
E 439 452 1
E 440 453 1
E 441 454 1
E 442 455 1
E 443 456 1
E 444 457 1
E 445 458 1
E 446 459 1
E 447 460 1
E 447 461 1
E 448 460 1
E 449 460 1
E 450 460 1
E 451 460 1
E 452 460 1
E 453 460 1
E 454 460 1
E 455 460 1
E 456 460 1
E 457 460 1
E 457 472 1
E 458 460 1
E 458 473 1
E 459 460 1
E 460 476 1
E 462 475 1
E 463 476 1
E 464 476 1
E 465 477 1
E 466 478 1
E 467 479 1
E 468 480 1
E 469 481 1
E 470 482 1
E 471 483 1
E 475 490 1
E 476 490 1
E 477 491 1
E 478 492 1
E 479 493 1
E 480 494 1
E 481 495 1
E 482 496 1
E 483 497 1
E 487 511 1
E 488 513 1
E 489 501 1
E 490 503 1
E 491 504 1
E 492 505 1
E 493 506 1
E 494 507 1
E 495 508 1
E 496 509 1
E 497 510 1
E 498 511 1
E 499 512 1
E 500 512 1
E 501 515 1
E 501 516 1
E 503 514 1
E 504 514 1
E 505 514 1
E 506 514 1
E 507 514 1
E 508 514 1
E 509 514 1
E 510 514 1
E 511 526 1
E 512 526 1
E 513 515 1
E 514 535 1
E 515 540 1
E 517 530 1
E 518 531 1
E 519 532 1
E 520 533 1
E 521 534 1
E 522 535 1
E 523 536 1
E 524 536 1
E 525 538 1
E 526 539 1
E 527 540 1
E 530 541 1
E 531 541 1
E 532 541 1
E 533 541 1
E 534 549 1
E 535 550 1
E 536 550 1
E 536 551 1
E 538 553 1
E 539 554 1
E 540 554 1
E 541 561 1
E 542 567 1
E 543 556 1
E 544 557 1
E 545 558 1
E 546 559 1
E 547 560 1
E 548 561 1
E 549 562 1
E 550 562 1
E 552 565 1
E 553 566 1
E 554 567 1
E 556 568 1
E 557 568 1
E 558 568 1
E 559 568 1
E 560 568 1
E 561 576 1
E 562 576 1
E 565 568 1
E 566 568 1
E 567 568 1
E 568 594 1
E 569 594 1
E 570 583 1
E 571 584 1
E 572 585 1
E 573 586 1
E 574 587 1
E 575 588 1
E 576 589 1
E 577 590 1
E 578 591 1
E 579 592 1
E 580 593 1
E 581 594 1
E 583 595 1
E 584 595 1
E 585 595 1
E 586 595 1
E 587 595 1
E 588 595 1
E 589 595 1
E 590 595 1
E 591 595 1
E 592 595 1
E 593 608 1
E 594 608 1
E 595 615 1
E 596 621 1
E 597 610 1
E 598 611 1
E 599 612 1
E 600 613 1
E 601 614 1
E 602 615 1
E 603 616 1
E 604 616 1
E 605 618 1
E 606 619 1
E 607 620 1
E 608 621 1
E 610 622 1
E 611 622 1
E 612 622 1
E 613 622 1
E 614 622 1
E 615 630 1
E 616 630 1
E 618 622 1
E 619 622 1
E 620 622 1
E 621 622 1
E 622 646 1
E 623 648 1
E 624 637 1
E 625 638 1
E 626 639 1
E 627 640 1
E 628 641 1
E 629 642 1
E 630 643 1
E 631 644 1
E 632 645 1
E 633 646 1
E 634 647 1
E 635 647 1
E 637 649 1
E 638 649 1
E 639 649 1
E 640 649 1
E 641 649 1
E 642 649 1
E 643 649 1
E 644 649 1
E 645 649 1
E 646 661 1
E 647 661 1
E 648 649 1
E 649 675 1
E 650 675 1
E 651 664 1
E 652 665 1
E 653 666 1
E 654 667 1
E 655 668 1
E 656 669 1
E 657 670 1
E 658 671 1
E 659 672 1
E 660 673 1
E 661 674 1
E 662 675 1
E 664 676 1
E 665 676 1
E 666 676 1
E 667 676 1
E 668 676 1
E 669 676 1
E 670 676 1
E 671 676 1
E 672 676 1
E 673 676 1
E 674 676 1
E 675 676 1
E 676 702 1
E 677 702 1
E 678 691 1
E 679 692 1
E 680 693 1
E 681 694 1
E 682 695 1
E 683 696 1
E 684 697 1
E 685 698 1
E 686 699 1
E 687 700 1
E 688 701 1
E 689 702 1
E 691 703 1
E 692 703 1
E 693 703 1
E 694 703 1
E 695 703 1
E 696 703 1
E 697 703 1
E 698 703 1
E 699 703 1
E 700 703 1
E 701 703 1
E 702 703 1
E 703 729 1
E 704 729 1
E 705 718 1
E 706 719 1
E 707 720 1
E 708 721 1
E 709 722 1
E 710 723 1
E 711 724 1
E 712 725 1
E 713 726 1
E 714 727 1
E 715 728 1
E 716 729 1
E 717 730 1
E 717 731 1
E 717 732 1
E 718 730 1
E 718 733 1
E 719 730 1
E 719 734 1
E 720 730 1
E 720 735 1
E 721 730 1
E 721 736 1
E 722 730 1
E 722 737 1
E 723 730 1
E 723 738 1
E 724 730 1
E 724 739 1
E 725 730 1
E 726 730 1
E 727 730 1
E 728 730 1
E 728 743 1
E 729 730 1
E 730 753 1
E 740 753 1
E 741 754 1
E 742 754 1
E 753 768 1
E 754 768 1
E 757 783 1
E 758 783 1
E 759 772 1
E 760 773 1
E 761 774 1
E 762 775 1
E 763 776 1
E 764 777 1
E 765 778 1
E 766 779 1
E 767 780 1
E 768 781 1
E 769 782 1
E 770 783 1
END
SECTION Terminals
T 1
T 2
T 3
T 4
T 5
T 6
T 7
T 8
T 9
T 10
T 11
T 12
T 13
T 14
T 28
T 29
T 30
T 31
T 32
T 33
T 34
T 35
T 36
T 37
T 38
T 39
T 40
T 41
T 55
T 56
T 57
T 58
T 59
T 60
T 61
T 62
T 63
T 64
T 65
T 66
T 67
T 68
T 82
T 83
T 84
T 85
T 86
T 87
T 88
T 89
T 90
T 91
T 92
T 93
T 94
T 95
T 109
T 110
T 111
T 112
T 113
T 114
T 115
T 116
T 117
T 118
T 119
T 120
T 121
T 122
T 136
T 137
T 138
T 139
T 140
T 141
T 142
T 143
T 144
T 145
T 146
T 147
T 148
T 149
T 163
T 164
T 165
T 166
T 167
T 168
T 169
T 170
T 171
T 172
T 173
T 174
T 175
T 176
T 190
T 191
T 192
T 193
T 194
T 195
T 196
T 197
T 198
T 199
T 200
T 201
T 202
T 203
T 217
T 218
T 219
T 220
T 221
T 222
T 223
T 224
T 225
T 226
T 227
T 228
T 229
T 230
T 244
T 245
T 246
T 247
T 248
T 249
T 250
T 251
T 252
T 253
T 254
T 255
T 256
T 257
T 271
T 272
T 273
T 274
T 275
T 276
T 277
T 278
T 279
T 280
T 281
T 282
T 283
T 284
T 298
T 299
T 300
T 301
T 302
T 303
T 304
T 305
T 306
T 307
T 308
T 309
T 310
T 311
T 325
T 326
T 327
T 328
T 329
T 330
T 331
T 332
T 333
T 334
T 335
T 336
T 337
T 338
T 352
T 353
T 354
T 355
T 356
T 357
T 358
T 359
T 360
T 361
T 362
T 363
T 364
T 365
T 379
T 380
T 381
T 382
T 383
T 384
T 385
T 386
T 387
T 388
T 389
T 390
T 391
T 392
T 406
T 407
T 408
T 409
T 410
T 411
T 412
T 413
T 414
T 415
T 416
T 417
T 418
T 419
T 433
T 434
T 435
T 436
T 437
T 438
T 439
T 440
T 441
T 442
T 443
T 444
T 445
T 446
T 460
T 461
T 462
T 463
T 464
T 465
T 466
T 467
T 468
T 469
T 470
T 471
T 472
T 473
T 487
T 488
T 489
T 490
T 491
T 492
T 493
T 494
T 495
T 496
T 497
T 498
T 499
T 500
T 514
T 515
T 516
T 517
T 518
T 519
T 520
T 521
T 522
T 523
T 524
T 525
T 526
T 527
T 541
T 542
T 543
T 544
T 545
T 546
T 547
T 548
T 549
T 550
T 551
T 552
T 553
T 554
T 568
T 569
T 570
T 571
T 572
T 573
T 574
T 575
T 576
T 577
T 578
T 579
T 580
T 581
T 595
T 596
T 597
T 598
T 599
T 600
T 601
T 602
T 603
T 604
T 605
T 606
T 607
T 608
T 622
T 623
T 624
T 625
T 626
T 627
T 628
T 629
T 630
T 631
T 632
T 633
T 634
T 635
T 649
T 650
T 651
T 652
T 653
T 654
T 655
T 656
T 657
T 658
T 659
T 660
T 661
T 662
T 676
T 677
T 678
T 679
T 680
T 681
T 682
T 683
T 684
T 685
T 686
T 687
T 688
T 689
T 703
T 704
T 705
T 706
T 707
T 708
T 709
T 710
T 711
T 712
T 713
T 714
T 715
T 716
T 730
T 731
T 732
T 733
T 734
T 735
T 736
T 737
T 738
T 739
T 740
T 741
T 742
T 743
T 757
T 758
T 759
T 760
T 761
T 762
T 763
T 764
T 765
T 766
T 767
T 768
T 769
T 770
END
SECTION Cost
712
END
